     Program PWSCF v.6.7MaX starts on  7May2021 at 16:45:20

     R & G space division:  proc/nbgrp/npool/nimage =      10
     Reading input from mos2_0_relax.in

     Current dimensions of program PWSCF are:
     Max number of different atomic species (ntypx) = 10
     Max number of k-points (npk) =  40000
     Max angular momentum in pseudopotentials (lmaxx) =  3

     bravais-lattice index     =            4
     lattice parameter (alat)  =       6.0170  a.u.
     unit-cell volume          =     888.7565 (a.u.)^3
     number of atoms/cell      =            3
     number of atomic types    =            2
     number of electrons       =        26.00
     number of Kohn-Sham states=           17
     kinetic-energy cutoff     =      80.0000  Ry
     charge density cutoff     =     640.0000  Ry
     scf convergence threshold =      1.0E-09
     mixing beta               =       0.7000
     number of iterations used =            8  local-TF  mixing
     energy convergence thresh.=      1.0E-05
     force convergence thresh. =      1.0E-04
     press convergence thresh. =      5.0E-01
     Exchange-correlation=  SLA  PW   PBX  PBC
                           (   1   4   3   4   0   0   0)
     nstep                     =           50

     celldm(1)=   6.017014  celldm(2)=   0.000000  celldm(3)=   4.710957
     celldm(4)=   0.000000  celldm(5)=   0.000000  celldm(6)=   0.000000

     crystal axes: (cart. coord. in units of alat)
               a(1) = (   1.000000   0.000000   0.000000 )
               a(2) = (  -0.500000   0.866025   0.000000 )
               a(3) = (   0.000000   0.000000   4.710957 )

     reciprocal axes: (cart. coord. in units 2 pi/alat)
               b(1) = (  1.000000  0.577350  0.000000 )
               b(2) = (  0.000000  1.154701  0.000000 )
               b(3) = (  0.000000  0.000000  0.212271 )

     PseudoPot. # 1 for Mo read from file:
     /home/melsa.ducut/scratch2/all_pbe_UPF/mo_pbe_v1.uspp.F.UPF
     MD5 check sum: 30c4dcd161f5d35cd49bb5239c51a633
     Pseudo is Ultrasoft + core correction, Zval = 14.0
     Generated by new atomic code, or converted to UPF format
     Using radial grid of  889 points,  6 beta functions with:
                l(1) =   0
                l(2) =   0
                l(3) =   1
                l(4) =   1
                l(5) =   2
                l(6) =   2
     Q(r) pseudized with  6 coefficients,  rinner =    1.000   1.000   1.000
                                                       1.000   1.000

     PseudoPot. # 2 for S  read from file:
     /home/melsa.ducut/scratch2/all_pbe_UPF/s_pbe_v1.4.uspp.F.UPF
     MD5 check sum: 88d86576ff6df21479756cfb9bdac1df
     Pseudo is Ultrasoft + core correction, Zval =  6.0
     Generated by new atomic code, or converted to UPF format
     Using radial grid of  907 points,  6 beta functions with:
                l(1) =   0
                l(2) =   0
                l(3) =   1
                l(4) =   1
                l(5) =   2
                l(6) =   2
     Q(r) pseudized with  8 coefficients,  rinner =    1.300   1.300   1.300
                                                       1.300   1.300

     atomic species   valence    mass     pseudopotential
        Mo            14.00    95.94000     Mo( 1.00)
        S              6.00    32.06600     S ( 1.00)

     Starting magnetic structure
     atomic species   magnetization
        Mo           0.200
        S            0.000

      6 Sym. Ops. (no inversion) found

                                    s                        frac. trans.

      isym =  1     identity

 cryst.   s( 1) = (     1          0          0      )
                  (     0          1          0      )
                  (     0          0          1      )

 cart.    s( 1) = (  1.0000000  0.0000000  0.0000000 )
                  (  0.0000000  1.0000000  0.0000000 )
                  (  0.0000000  0.0000000  1.0000000 )

      isym =  2     120 deg rotation - cryst. axis [0,0,1]

[...]

      isym =  4     inv. 180 deg rotation - cart. axis [1,0,0]

[...]

      isym =  5     inv. 180 deg rotation - cryst. axis [0,1,0]

[...]

     point group C_3v (3m)
     there are  3 classes
     the character table:

       E     2C3   3s_v
A_1    1.00  1.00  1.00
A_2    1.00  1.00 -1.00
E      2.00 -1.00  0.00

     the symmetry operations in each class and the name of the first element:

     E        1
          identity
     2C3      2    3
          120 deg rotation - cryst. axis [0,0,1]
     3s_v     4    5    6
          inv. 180 deg rotation - cart. axis [1,0,0]

   Cartesian axes

     site n.     atom                  positions (alat units)
         1           Mo  tau(   1) = (   0.0000000   0.0000000   2.2184070  )
         2           S   tau(   2) = (   0.4999999   0.2886752   2.7094637  )
         3           S   tau(   3) = (   0.4999999   0.2886752   1.7273507  )

   Crystallographic axes

     site n.     atom                  positions (cryst. coord.)
         1           Mo  tau(   1) = (  0.0000000  0.0000000  0.4709037  )
         2           S   tau(   2) = (  0.6666666  0.3333334  0.5751409  )
         3           S   tau(   3) = (  0.6666666  0.3333334  0.3666667  )

     number of k points=     8  Gaussian smearing, width (Ry)=  0.0100
                       cart. coord. in units 2pi/alat
        k(    1) = (   0.0000000   0.0000000   0.0000000), wk =   0.0204082
        k(    2) = (   0.0000000   0.1649572   0.0000000), wk =   0.1224490
        k(    3) = (   0.0000000   0.3299144   0.0000000), wk =   0.1224490
        k(    4) = (   0.0000000   0.4948717   0.0000000), wk =   0.1224490
        k(    5) = (   0.1428571   0.2474358   0.0000000), wk =   0.1224490
        k(    6) = (   0.1428571   0.4123930   0.0000000), wk =   0.2448980
        k(    7) = (   0.1428571   0.5773503   0.0000000), wk =   0.1224490
        k(    8) = (   0.2857143   0.4948717   0.0000000), wk =   0.1224490

                       cryst. coord.
        k(    1) = (   0.0000000   0.0000000   0.0000000), wk =   0.0204082
        k(    2) = (   0.0000000   0.1428571   0.0000000), wk =   0.1224490
        k(    3) = (   0.0000000   0.2857143   0.0000000), wk =   0.1224490
        k(    4) = (   0.0000000   0.4285714   0.0000000), wk =   0.1224490
        k(    5) = (   0.1428571   0.1428571   0.0000000), wk =   0.1224490
        k(    6) = (   0.1428571   0.2857143   0.0000000), wk =   0.2448980
        k(    7) = (   0.1428571   0.4285714   0.0000000), wk =   0.1224490
        k(    8) = (   0.2857143   0.2857143   0.0000000), wk =   0.1224490

     Initial potential from superposition of free atoms

     starting charge   25.99886, renormalised to   26.00000

     negative rho (up, down):  3.092E-05 2.001E-05
     Starting wfcs are   21 randomized atomic wfcs

     Self-consistent Calculation

     iteration #  1     ecut=    80.00 Ry     beta= 0.70
     Davidson diagonalization with overlap
     ethr =  1.00E-02,  avg # of iterations =  2.1

     Threshold (ethr) on eigenvalues was too large:
     Diagonalizing with lowered threshold

     Davidson diagonalization with overlap
     ethr =  5.09E-04,  avg # of iterations =  2.2

     negative rho (up, down):  1.983E-08 1.865E-08

     total energy              =    -187.72679423 Ry
     estimated scf accuracy    <       0.15495075 Ry

     total magnetization       =     0.00 Bohr mag/cell
     absolute magnetization    =     0.78 Bohr mag/cell

[...]

     Magnetic moment per site:
     atom:    1    charge:   10.7497    magn:    0.0000    constr:    0.0000
     atom:    2    charge:    4.1533    magn:   -0.0000    constr:    0.0000
     atom:    3    charge:    4.1533    magn:   -0.0000    constr:    0.0000

     End of self-consistent calculation

 ------ SPIN UP ------------

          k = 0.0000 0.0000 0.0000 ( 10755 PWs)   bands (ev):

   -60.2204 -34.3504 -34.1478 -34.1478 -13.3970 -12.0970  -4.9156  -1.9236
    -1.9236  -1.0926  -0.8220  -0.8220   0.6750   3.4322   3.4322   3.6782
     3.6782

     occupation numbers
     1.0000   1.0000   1.0000   1.0000   1.0000   1.0000   1.0000   1.0000
     1.0000   1.0000   1.0000   1.0000   1.0000   0.0000   0.0000   0.0000
     0.0000

[...]

 ------ SPIN DOWN ----------

[...]

     the Fermi energy is     1.5376 ev

!    total energy              =    -187.73296455 Ry
     estimated scf accuracy    <          8.6E-10 Ry
     smearing contrib. (-TS)   =      -0.00000000 Ry
     internal energy E=F+TS    =    -187.73296455 Ry

     The total energy is F=E-TS. E is the sum of the following terms:
     one-electron contribution =    -711.37817057 Ry
     hartree contribution      =     357.65319981 Ry
     xc contribution           =     -36.26788240 Ry
     ewald contribution        =     202.25988861 Ry

[...]

     convergence has been achieved in  12 iterations

[...]

     Forces acting on atoms (cartesian axes, Ry/au):

     atom    1 type  1   force =     0.00000000    0.00000000    0.00000068
     atom    2 type  2   force =     0.00000000    0.00000000   -0.00113251
     atom    3 type  2   force =     0.00000000    0.00000000    0.00113183
     The non-local contrib.  to forces
     atom    1 type  1   force =     0.00000000    0.00000000    0.00000011
     atom    2 type  2   force =     0.00000000   -0.00000000   -0.27945826
     atom    3 type  2   force =     0.00000000   -0.00000000    0.27945812
     The ionic contribution  to forces
     atom    1 type  1   force =    -0.00000185    0.00000062   -0.00000081
     atom    2 type  2   force =     0.00000093   -0.00000031   32.59534829
     atom    3 type  2   force =     0.00000093   -0.00000031  -32.59534748
     The local contribution  to forces
     atom    1 type  1   force =    -0.00000000    0.00000000   -0.00000027
     atom    2 type  2   force =     0.00000256   -0.00000085  -32.33141551
     atom    3 type  2   force =     0.00000256   -0.00000085   32.33141234
     The core correction contribution to forces
     atom    1 type  1   force =     0.00000000   -0.00000000    0.00000000
     atom    2 type  2   force =    -0.00000030    0.00000010    0.01433722
     atom    3 type  2   force =    -0.00000030    0.00000010   -0.01433721
     The Hubbard contrib.    to forces
     atom    1 type  1   force =     0.00000000    0.00000000    0.00000000
     atom    2 type  2   force =     0.00000000    0.00000000    0.00000000
     atom    3 type  2   force =     0.00000000    0.00000000    0.00000000
     The SCF correction term to forces
     atom    1 type  1   force =    -0.00000000    0.00000000    0.00000161
     atom    2 type  2   force =     0.00000000   -0.00000000    0.00005572
     atom    3 type  2   force =     0.00000000   -0.00000000   -0.00005397

     Total force =     0.001601     Total SCF correction =     0.000078

     Computing stress (Cartesian axis) and pressure

     negative rho (up, down):  5.003E-05 5.003E-05
          total   stress  (Ry/bohr**3)                   (kbar)     P=       -0.79
  -0.00000428   0.00000000   0.00000000           -0.63        0.00        0.00
   0.00000000  -0.00000428   0.00000000            0.00       -0.63        0.00
[...]

     enthalpy new            =    -187.7329645477 Ry

     new trust radius        =       0.0011325114 bohr
     new conv_thr            =       0.0000000010 Ry

     new unit-cell volume =    888.56624 a.u.^3 (   131.67193 Ang^3 )
     density =      2.01870 g/cm^3

CELL_PARAMETERS (alat=  6.01701403)
   0.999892938   0.000000000   0.000000000
  -0.499946469   0.865932685   0.000000000
   0.000000000   0.000000000   4.710956589

ATOMIC_POSITIONS (angstrom)
Mo            0.0000000000        0.0000000000        7.0635563613
S             1.5918625533        0.9190625925        8.6265137008
S             1.5918625533        0.9190625925        5.5005989379

     Writing output data file ./outdir/MoS2.save/
     NEW-OLD atomic charge density approx. for the potential

     negative rho (up, down):  4.939E-05 4.939E-05
     extrapolated charge   25.99443, renormalised to   26.00000
     Generating pointlists ...

[...]

          k =-0.0000 0.1650 0.0000 ( 10801 PWs)   bands (ev):

[...]

     Energy error            =      2.7E-06
     Gradient error          =      6.2E-04
     Cell gradient error     =      2.5E-06

     number of scf cycles    =   2
     number of bfgs steps    =   1

     enthalpy old            =    -187.7329645477 Ry
     enthalpy new            =    -187.7329672053 Ry

     CASE: enthalpy_new < enthalpy_old

     new trust radius        =       0.0012457626 bohr
     new conv_thr            =            1.0E-11 Ry

     new unit-cell volume =    888.34771 a.u.^3 (   131.63955 Ang^3 )
     density =      2.01919 g/cm^3

[...]

ATOMIC_POSITIONS (angstrom)
Mo            0.0000000000        0.0000000000        7.0635563422
S             1.5916667979        0.9189495730        8.6258544907
S             1.5916667979        0.9189495730        5.5012581671

     Writing output data file ./outdir/MoS2.save/
     NEW-OLD atomic charge density approx. for the potential

     negative rho (up, down):  4.926E-05 4.926E-05
     extrapolated charge   25.99360, renormalised to   26.00000
     Generating pointlists ...

[...]

Begin final coordinates
     new unit-cell volume =    888.34771 a.u.^3 (   131.63955 Ang^3 )
     density =      2.01919 g/cm^3

[...]

ATOMIC_POSITIONS (angstrom)
Mo            0.0000000000        0.0000000000        7.0635563422
S             1.5916667979        0.9189495730        8.6258544907
S             1.5916667979        0.9189495730        5.5012581671
End final coordinates

     Writing output data file ./outdir/MoS2.save/

     lsda relaxation :  a final configuration with zero
                        absolute magnetization has been found

     the program is checking if it is really the minimum energy structure
     by performing a new scf iteration without any "electronic" history

[...]

     Energy error            =      1.2E-06
     Gradient error          =      5.1E-05
     Cell gradient error     =      3.8E-07

     bfgs converged in   3 scf cycles and   2 bfgs steps
     (criteria: energy <  1.0E-05 Ry, force <  1.0E-04Ry/Bohr, cell <  5.0E-01kbar)

     End of BFGS Geometry Optimization

     Final enthalpy =    -187.7329683632 Ry

     File ./outdir/MoS2.bfgs deleted, as requested
Begin final coordinates
     new unit-cell volume =    888.34771 a.u.^3 (   131.63955 Ang^3 )
     density =      2.01919 g/cm^3

CELL_PARAMETERS (alat=  6.01701403)
   0.999769978   0.000000000   0.000000000
  -0.499884989   0.865826199   0.000000000
   0.000000000   0.000000000   4.710956589

ATOMIC_POSITIONS (angstrom)
Mo            0.0000000000        0.0000000000        7.0635563422
S             1.5916667979        0.9189495730        8.6258544907
S             1.5916667979        0.9189495730        5.5012581671
End final coordinates

[...]

     Final scf calculation at the relaxed structure.
     The G-vectors are recalculated for the final unit cell
     Results may differ from those at the preceding step.

     bravais-lattice index     =            4
     lattice parameter (alat)  =       6.0170  a.u.
     unit-cell volume          =     888.3477 (a.u.)^3
     number of atoms/cell      =            3
     number of atomic types    =            2
     number of electrons       =        26.00
     number of Kohn-Sham states=           17
     kinetic-energy cutoff     =      80.0000  Ry
     charge density cutoff     =     640.0000  Ry
     scf convergence threshold =      1.0E-11
     mixing beta               =       0.7000
     number of iterations used =            8  local-TF  mixing
     press convergence thresh. =      5.0E-01
     Exchange-correlation=  SLA  PW   PBX  PBC
                           (   1   4   3   4   0   0   0)

     celldm(1)=   6.017014  celldm(2)=   0.000000  celldm(3)=   4.710957
     celldm(4)=   0.000000  celldm(5)=   0.000000  celldm(6)=   0.000000

     crystal axes: (cart. coord. in units of alat)
               a(1) = (   0.999770   0.000000   0.000000 )
               a(2) = (  -0.499885   0.865826   0.000000 )
               a(3) = (   0.000000   0.000000   4.710957 )

     reciprocal axes: (cart. coord. in units 2 pi/alat)
               b(1) = (  1.000230  0.577483  0.000000 )
               b(2) = ( -0.000000  1.154966  0.000000 )
               b(3) = (  0.000000  0.000000  0.212271 )

     PseudoPot. # 1 for Mo read from file:
     /home/melsa.ducut/scratch2/all_pbe_UPF/mo_pbe_v1.uspp.F.UPF
     MD5 check sum: 30c4dcd161f5d35cd49bb5239c51a633
     Pseudo is Ultrasoft + core correction, Zval = 14.0
     Generated by new atomic code, or converted to UPF format
     Using radial grid of  889 points,  6 beta functions with:
                l(1) =   0
                l(2) =   0
                l(3) =   1
                l(4) =   1
                l(5) =   2
                l(6) =   2
     Q(r) pseudized with  6 coefficients,  rinner =    1.000   1.000   1.000
                                                       1.000   1.000

     PseudoPot. # 2 for S  read from file:
     /home/melsa.ducut/scratch2/all_pbe_UPF/s_pbe_v1.4.uspp.F.UPF
     MD5 check sum: 88d86576ff6df21479756cfb9bdac1df
     Pseudo is Ultrasoft + core correction, Zval =  6.0
     Generated by new atomic code, or converted to UPF format
     Using radial grid of  907 points,  6 beta functions with:
                l(1) =   0
                l(2) =   0
                l(3) =   1
                l(4) =   1
                l(5) =   2
                l(6) =   2
     Q(r) pseudized with  8 coefficients,  rinner =    1.300   1.300   1.300
                                                       1.300   1.300

     atomic species   valence    mass     pseudopotential
        Mo            14.00    95.94000     Mo( 1.00)
        S              6.00    32.06600     S ( 1.00)

     Starting magnetic structure
     atomic species   magnetization
        Mo           0.000
        S           -0.000

      6 Sym. Ops. (no inversion) found

                                    s                        frac. trans.

      isym =  1     identity

[...]

      isym =  3     120 deg rotation - cryst. axis [0,0,-1]

[...]

      isym =  4     inv. 180 deg rotation - cart. axis [1,0,0]

[...]

      isym =  6     inv. 180 deg rotation - cryst. axis [1,1,0]

 cryst.   s( 6) = (     0         -1          0      )
                  (    -1          0          0      )
                  (     0          0          1      )

 cart.    s( 6) = (  0.5000000 -0.8660254  0.0000000 )
                  ( -0.8660254 -0.5000000  0.0000000 )
                  (  0.0000000  0.0000000  1.0000000 )

     point group C_3v (3m)
     there are  3 classes
     the character table:

       E     2C3   3s_v
A_1    1.00  1.00  1.00
A_2    1.00  1.00 -1.00
E      2.00 -1.00  0.00

     the symmetry operations in each class and the name of the first element:

     E        1
          identity
     2C3      2    3
          120 deg rotation - cryst. axis [0,0,1]
     3s_v     4    5    6
          inv. 180 deg rotation - cart. axis [1,0,0]

   Cartesian axes

     site n.     atom                  positions (alat units)
         1           Mo  tau(   1) = (   0.0000000   0.0000000   2.2184072  )
         2           S   tau(   2) = (   0.4998849   0.2886088   2.7090684  )
         3           S   tau(   3) = (   0.4998849   0.2886088   1.7277459  )

   Crystallographic axes

     site n.     atom                  positions (cryst. coord.)
         1           Mo  tau(   1) = (  0.0000000  0.0000000  0.4709038  )
         2           S   tau(   2) = (  0.6666666  0.3333334  0.5750570  )
         3           S   tau(   3) = (  0.6666666  0.3333334  0.3667505  )

     number of k points=     8  Gaussian smearing, width (Ry)=  0.0100
                       cart. coord. in units 2pi/alat
        k(    1) = (   0.0000000   0.0000000   0.0000000), wk =   0.0204082
        k(    2) = (  -0.0000000   0.1649952   0.0000000), wk =   0.1224490
        k(    3) = (  -0.0000000   0.3299903   0.0000000), wk =   0.1224490
        k(    4) = (  -0.0000000   0.4949855   0.0000000), wk =   0.1224490
        k(    5) = (   0.1428900   0.2474928   0.0000000), wk =   0.1224490
        k(    6) = (   0.1428900   0.4124879   0.0000000), wk =   0.2448980
        k(    7) = (   0.1428900   0.5774831   0.0000000), wk =   0.1224490
        k(    8) = (   0.2857800   0.4949855   0.0000000), wk =   0.1224490

                       cryst. coord.
        k(    1) = (   0.0000000   0.0000000   0.0000000), wk =   0.0204082
        k(    2) = (   0.0000000   0.1428571   0.0000000), wk =   0.1224490
        k(    3) = (   0.0000000   0.2857143   0.0000000), wk =   0.1224490
        k(    4) = (  -0.0000000   0.4285714   0.0000000), wk =   0.1224490
        k(    5) = (   0.1428571   0.1428571   0.0000000), wk =   0.1224490
        k(    6) = (   0.1428571   0.2857143   0.0000000), wk =   0.2448980
        k(    7) = (   0.1428571   0.4285714   0.0000000), wk =   0.1224490
        k(    8) = (   0.2857143   0.2857143   0.0000000), wk =   0.1224490

     Initial potential from superposition of free atoms

     starting charge   25.99886, renormalised to   26.00000

     negative rho (up, down):  2.549E-05 2.549E-05
     Starting wfcs are   21 randomized atomic wfcs

     Self-consistent Calculation

[...]

     total energy              =    -187.73296831 Ry
     estimated scf accuracy    <          2.4E-11 Ry

[...]

     iteration # 14     ecut=    80.00 Ry     beta= 0.70
     Davidson diagonalization with overlap
     ethr =  1.00E-13,  avg # of iterations =  4.1

[...]

     Magnetic moment per site:
     atom:    1    charge:   10.7510    magn:   -0.0000    constr:    0.0000
     atom:    2    charge:    4.1544    magn:    0.0000    constr:    0.0000
     atom:    3    charge:    4.1545    magn:    0.0000    constr:    0.0000

     End of self-consistent calculation

 ------ SPIN UP ------------

[...]

 ------ SPIN DOWN ----------

[...]

          k =-0.0000 0.4950 0.0000 ( 10714 PWs)   bands (ev):

[...]

          k = 0.2858 0.4950 0.0000 ( 10694 PWs)   bands (ev):

   -60.1760 -34.4439 -34.3404 -34.2663 -11.3649 -11.2404  -4.5505  -4.2484
    -3.0101  -2.6750  -2.3570  -1.2475   0.4414   2.5958   3.7931   3.9282
     5.4112

     occupation numbers
     1.0000   1.0000   1.0000   1.0000   1.0000   1.0000   1.0000   1.0000
     1.0000   1.0000   1.0000   1.0000   1.0000   0.0000   0.0000   0.0000
     0.0000

     the Fermi energy is     1.5476 ev

!    total energy              =    -187.73296831 Ry
     estimated scf accuracy    <          1.2E-12 Ry
     smearing contrib. (-TS)   =      -0.00000000 Ry
     internal energy E=F+TS    =    -187.73296831 Ry

     The total energy is F=E-TS. E is the sum of the following terms:
     one-electron contribution =    -711.96777787 Ry
     hartree contribution      =     357.95008204 Ry
     xc contribution           =     -36.27089203 Ry
     ewald contribution        =     202.55561954 Ry

     total magnetization       =     0.00 Bohr mag/cell
     absolute magnetization    =     0.00 Bohr mag/cell

     convergence has been achieved in  14 iterations

     negative rho (up, down):  5.018E-05 5.018E-05

     Forces acting on atoms (cartesian axes, Ry/au):

     atom    1 type  1   force =     0.00000000    0.00000000   -0.00000019
     atom    2 type  2   force =     0.00000000    0.00000000   -0.00005113
     atom    3 type  2   force =     0.00000000    0.00000000    0.00005131
     The non-local contrib.  to forces
     atom    1 type  1   force =     0.00000000    0.00000000   -0.00000025
     atom    2 type  2   force =     0.00000000    0.00000000   -0.27874181
     atom    3 type  2   force =    -0.00000000    0.00000000    0.27874209
     The ionic contribution  to forces
     atom    1 type  1   force =    -0.00000186    0.00000062    0.00000002
     atom    2 type  2   force =     0.00000093   -0.00000031   32.61636528
     atom    3 type  2   force =     0.00000093   -0.00000031  -32.61636530
     The local contribution  to forces
     atom    1 type  1   force =     0.00000000    0.00000000    0.00000207
     atom    2 type  2   force =     0.00000256   -0.00000085  -32.35196291
     atom    3 type  2   force =     0.00000256   -0.00000085   32.35196412
     The core correction contribution to forces
     atom    1 type  1   force =     0.00000000   -0.00000000    0.00000003
     atom    2 type  2   force =    -0.00000030    0.00000010    0.01429101
     atom    3 type  2   force =    -0.00000030    0.00000010   -0.01429101
     The Hubbard contrib.    to forces
     atom    1 type  1   force =     0.00000000    0.00000000    0.00000000
     atom    2 type  2   force =     0.00000000    0.00000000    0.00000000
     atom    3 type  2   force =     0.00000000    0.00000000    0.00000000
     The SCF correction term to forces
     atom    1 type  1   force =    -0.00000000    0.00000000   -0.00000209
     atom    2 type  2   force =     0.00000000   -0.00000000   -0.00000271
     atom    3 type  2   force =     0.00000000   -0.00000000    0.00000138

     Total force =     0.000072     Total SCF correction =     0.000004

     Computing stress (Cartesian axis) and pressure

     negative rho (up, down):  5.018E-05 5.018E-05
          total   stress  (Ry/bohr**3)                   (kbar)     P=       -0.06
  -0.00000038   0.00000000   0.00000000           -0.06        0.00        0.00
   0.00000000  -0.00000038   0.00000000            0.00       -0.06        0.00
   0.00000000   0.00000000  -0.00000056            0.00        0.00       -0.08

     kinetic stress (kbar)   4899.33     -0.00      0.00
                                0.00   4899.33      0.00
                                0.00      0.00   4959.38

     local   stress (kbar)-115679.57     -0.00     -0.00
                               -0.00-115679.57      0.00
                               -0.00      0.00 112939.86

     nonloc. stress (kbar)   5160.92      0.00      0.00
                                0.00   5160.92      0.00
                                0.00      0.00   5176.38

     hartree stress (kbar)  56515.61      0.00      0.00
                                0.00  56515.61     -0.00
                                0.00     -0.00 -53756.82

     exc-cor stress (kbar)    368.44      0.00      0.00
                                0.00    368.44     -0.00
                                0.00     -0.00    367.43

     corecor stress (kbar)  -1918.60     -0.00      0.00
                               -0.00  -1918.60     -0.00
                                0.00     -0.00  -1920.66

     ewald   stress (kbar)  50653.83      0.00      0.00
                                0.00  50653.83     -0.00
                                0.00     -0.00 -67765.65

     hubbard stress (kbar)      0.00      0.00      0.00
                                0.00      0.00      0.00
                                0.00      0.00      0.00

     DFT-D   stress (kbar)      0.00      0.00      0.00
                                0.00      0.00      0.00
                                0.00      0.00      0.00

     XDM     stress (kbar)      0.00      0.00      0.00
                                0.00      0.00      0.00
                                0.00      0.00      0.00

     dft-nl  stress (kbar)      0.00      0.00      0.00
                                0.00      0.00      0.00
                                0.00      0.00      0.00

     TS-vdW  stress (kbar)      0.00      0.00      0.00
                                0.00      0.00      0.00
                                0.00      0.00      0.00

     Writing output data file ./outdir/MoS2.save/

     General routines

     Parallel routines

   This run was terminated on:  16:48:36   7May2021

   JOB DONE.