     Program PWSCF v.6.7MaX starts on  7May2021 at 17:57:43

     R & G space division:  proc/nbgrp/npool/nimage =      10
     Reading input from mos2_1_scf.in

     Current dimensions of program PWSCF are:
     Max number of different atomic species (ntypx) = 10
     Max number of k-points (npk) =  40000
     Max angular momentum in pseudopotentials (lmaxx) =  3

     bravais-lattice index     =            4
     lattice parameter (alat)  =       6.0156  a.u.
     unit-cell volume          =     888.3477 (a.u.)^3
     number of atoms/cell      =            3
     number of atomic types    =            2
     number of electrons       =        26.00
     number of Kohn-Sham states=           17
     kinetic-energy cutoff     =      80.0000  Ry
     charge density cutoff     =     640.0000  Ry
     scf convergence threshold =      1.0E-09
     mixing beta               =       0.7000
     number of iterations used =            8  local-TF  mixing
     Exchange-correlation=  SLA  PW   PBX  PBC
                           (   1   4   3   4   0   0   0)

     celldm(1)=   6.015630  celldm(2)=   0.000000  celldm(3)=   4.712040
     celldm(4)=   0.000000  celldm(5)=   0.000000  celldm(6)=   0.000000

     crystal axes: (cart. coord. in units of alat)
               a(1) = (   1.000000   0.000000   0.000000 )
               a(2) = (  -0.500000   0.866025   0.000000 )
               a(3) = (   0.000000   0.000000   4.712040 )

     reciprocal axes: (cart. coord. in units 2 pi/alat)
               b(1) = (  1.000000  0.577350  0.000000 )
               b(2) = (  0.000000  1.154701  0.000000 )
               b(3) = (  0.000000  0.000000  0.212222 )

     PseudoPot. # 1 for Mo read from file:
     /home/melsa.ducut/scratch2/all_pbe_UPF/mo_pbe_v1.uspp.F.UPF
     MD5 check sum: 30c4dcd161f5d35cd49bb5239c51a633
     Pseudo is Ultrasoft + core correction, Zval = 14.0
     Generated by new atomic code, or converted to UPF format
     Using radial grid of  889 points,  6 beta functions with:
                l(1) =   0
                l(2) =   0
                l(3) =   1
                l(4) =   1
                l(5) =   2
                l(6) =   2
     Q(r) pseudized with  6 coefficients,  rinner =    1.000   1.000   1.000
                                                       1.000   1.000

     PseudoPot. # 2 for S  read from file:
     /home/melsa.ducut/scratch2/all_pbe_UPF/s_pbe_v1.4.uspp.F.UPF
     MD5 check sum: 88d86576ff6df21479756cfb9bdac1df
     Pseudo is Ultrasoft + core correction, Zval =  6.0
     Generated by new atomic code, or converted to UPF format
     Using radial grid of  907 points,  6 beta functions with:
                l(1) =   0
                l(2) =   0
                l(3) =   1
                l(4) =   1
                l(5) =   2
                l(6) =   2
     Q(r) pseudized with  8 coefficients,  rinner =    1.300   1.300   1.300
                                                       1.300   1.300

     atomic species   valence    mass     pseudopotential
        Mo            14.00    95.94000     Mo( 1.00)
        S              6.00    32.06600     S ( 1.00)

     Starting magnetic structure
     atomic species   magnetization
        Mo           0.200
        S            0.000

      2 Sym. Ops. (no inversion) found

                                    s                        frac. trans.

      isym =  1     identity

 cryst.   s( 1) = (     1          0          0      )
                  (     0          1          0      )
                  (     0          0          1      )

 cart.    s( 1) = (  1.0000000  0.0000000  0.0000000 )
                  (  0.0000000  1.0000000  0.0000000 )
                  (  0.0000000  0.0000000  1.0000000 )

      isym =  2     inv. 180 deg rotation - cryst. axis [0,1,0]

 cryst.   s( 2) = (     1          1          0      )
                  (     0         -1          0      )
                  (     0          0          1      )

 cart.    s( 2) = (  0.5000000  0.8660254  0.0000000 )
                  (  0.8660254 -0.5000000  0.0000000 )
                  (  0.0000000  0.0000000  1.0000000 )

     point group C_s (m)
     there are  2 classes
     the character table:

       E     s
A'     1.00  1.00
A''    1.00 -1.00

     the symmetry operations in each class and the name of the first element:

     E        1
          identity
     s        2
          inv. 180 deg rotation - cryst. axis [0,1,0]

   Cartesian axes

     site n.     atom                  positions (alat units)
         1           Mo  tau(   1) = (   0.0000000   0.0000000   2.2189174  )
         2           S   tau(   2) = (   0.5001149   0.2887416   2.7100870  )
         3           S   tau(   3) = (   0.5001149   0.2887416   1.7277482  )

   Crystallographic axes

     site n.     atom                  positions (cryst. coord.)
         1           Mo  tau(   1) = (  0.0000000  0.0000000  0.4709037  )
         2           S   tau(   2) = (  0.6668200  0.3334101  0.5751409  )
         3           S   tau(   3) = (  0.6668200  0.3334101  0.3666667  )

     number of k points=    16  Gaussian smearing, width (Ry)=  0.0100
                       cart. coord. in units 2pi/alat
        k(    1) = (   0.0000000   0.0000000   0.0000000), wk =   0.0204082
        k(    2) = (   0.0000000   0.1649572   0.0000000), wk =   0.0816327
        k(    3) = (   0.0000000   0.3299144   0.0000000), wk =   0.0816327
        k(    4) = (   0.0000000   0.4948717   0.0000000), wk =   0.0816327
        k(    5) = (   0.1428571   0.2474358   0.0000000), wk =   0.0816327
        k(    6) = (   0.1428571   0.4123930   0.0000000), wk =   0.0816327
        k(    7) = (   0.1428571   0.5773503   0.0000000), wk =   0.0816327
        k(    8) = (   0.2857143   0.4948717   0.0000000), wk =   0.0816327
        k(    9) = (   0.1428571   0.0824786   0.0000000), wk =   0.0408163
        k(   10) = (   0.2857143   0.1649572   0.0000000), wk =   0.0408163
        k(   11) = (   0.4285714   0.2474358   0.0000000), wk =   0.0408163
        k(   12) = (  -0.1428571   0.2474358   0.0000000), wk =   0.0408163
        k(   13) = (  -0.1428571   0.4123930   0.0000000), wk =   0.0816327
        k(   14) = (   0.4285714   0.0824786   0.0000000), wk =   0.0816327
        k(   15) = (   0.5714286   0.1649572   0.0000000), wk =   0.0408163
        k(   16) = (  -0.2857143   0.4948717   0.0000000), wk =   0.0408163

                       cryst. coord.
        k(    1) = (   0.0000000   0.0000000   0.0000000), wk =   0.0204082
        k(    2) = (   0.0000000   0.1428571   0.0000000), wk =   0.0816327
        k(    3) = (   0.0000000   0.2857143   0.0000000), wk =   0.0816327
        k(    4) = (   0.0000000   0.4285714   0.0000000), wk =   0.0816327
        k(    5) = (   0.1428571   0.1428571   0.0000000), wk =   0.0816327
        k(    6) = (   0.1428571   0.2857143   0.0000000), wk =   0.0816327
        k(    7) = (   0.1428571   0.4285714   0.0000000), wk =   0.0816327
        k(    8) = (   0.2857143   0.2857143   0.0000000), wk =   0.0816327
        k(    9) = (   0.1428571   0.0000000   0.0000000), wk =   0.0408163
        k(   10) = (   0.2857143   0.0000000   0.0000000), wk =   0.0408163
        k(   11) = (   0.4285714   0.0000000   0.0000000), wk =   0.0408163
        k(   12) = (  -0.1428571   0.2857143   0.0000000), wk =   0.0408163
        k(   13) = (  -0.1428571   0.4285714   0.0000000), wk =   0.0816327
        k(   14) = (   0.4285714  -0.1428571   0.0000000), wk =   0.0816327
        k(   15) = (   0.5714286  -0.1428571   0.0000000), wk =   0.0408163
        k(   16) = (  -0.2857143   0.5714286   0.0000000), wk =   0.0408163

     Initial potential from superposition of free atoms

     starting charge   25.99886, renormalised to   26.00000

     negative rho (up, down):  3.118E-05 2.018E-05
     Starting wfcs are   21 randomized atomic wfcs

     Self-consistent Calculation

     iteration #  1     ecut=    80.00 Ry     beta= 0.70
     Davidson diagonalization with overlap
     ethr =  1.00E-02,  avg # of iterations =  2.1

     Threshold (ethr) on eigenvalues was too large:
     Diagonalizing with lowered threshold

     Davidson diagonalization with overlap
     ethr =  5.10E-04,  avg # of iterations =  2.2

     negative rho (up, down):  3.739E-08 3.745E-08

     total energy              =    -187.72679441 Ry
     estimated scf accuracy    <       0.15498338 Ry

     total magnetization       =     0.00 Bohr mag/cell
     absolute magnetization    =     0.78 Bohr mag/cell

[...]

     total energy              =    -187.73296581 Ry
     estimated scf accuracy    <          2.4E-09 Ry

[...]

     iteration # 12     ecut=    80.00 Ry     beta= 0.70
     Davidson diagonalization with overlap
     ethr =  9.08E-12,  avg # of iterations =  4.6

     negative rho (up, down):  5.015E-05 5.015E-05

     Magnetic moment per site:
     atom:    1    charge:   10.7486    magn:    0.0000    constr:    0.0000
     atom:    2    charge:    4.1522    magn:   -0.0000    constr:    0.0000
     atom:    3    charge:    4.1522    magn:   -0.0000    constr:    0.0000

     End of self-consistent calculation

 ------ SPIN UP ------------

          k = 0.0000 0.0000 0.0000 ( 10755 PWs)   bands (ev):

   -60.2164 -34.3468 -34.1435 -34.1434 -13.3964 -12.0959  -4.9149  -1.9208
    -1.9199  -1.0913  -0.8200  -0.8163   0.6766   3.4352   3.4395   3.6825
     3.6842

     occupation numbers
     1.0000   1.0000   1.0000   1.0000   1.0000   1.0000   1.0000   1.0000
     1.0000   1.0000   1.0000   1.0000   1.0000   0.0000   0.0000   0.0000
     0.0000

[...]

          k =-0.1429 0.2474 0.0000 ( 10779 PWs)   bands (ev):

[...]

 ------ SPIN DOWN ----------

[...]

          k = 0.5714 0.1650 0.0000 ( 10690 PWs)   bands (ev):

[...]

          k =-0.2857 0.4949 0.0000 ( 10694 PWs)   bands (ev):

   -60.1760 -34.4430 -34.3396 -34.2660 -11.3602 -11.2376  -4.5448  -4.2446
    -3.0075  -2.6712  -2.3564  -1.2493   0.4440   2.5981   3.7883   3.9259
     5.4087

     occupation numbers
     1.0000   1.0000   1.0000   1.0000   1.0000   1.0000   1.0000   1.0000
     1.0000   1.0000   1.0000   1.0000   1.0000   0.0000   0.0000   0.0000
     0.0000

     the Fermi energy is     1.5452 ev

!    total energy              =    -187.73296581 Ry
     estimated scf accuracy    <          7.6E-10 Ry
     smearing contrib. (-TS)   =      -0.00000000 Ry
     internal energy E=F+TS    =    -187.73296581 Ry

     The total energy is F=E-TS. E is the sum of the following terms:
     one-electron contribution =    -711.66377280 Ry
     hartree contribution      =     357.79925935 Ry
     xc contribution           =     -36.26896413 Ry
     ewald contribution        =     202.40051178 Ry

     total magnetization       =     0.00 Bohr mag/cell
     absolute magnetization    =     0.00 Bohr mag/cell

     convergence has been achieved in  12 iterations

     Writing output data file ./outdir/MoS2.save/

     General routines

     Parallel routines

   This run was terminated on:  17:58:14   7May2021

   JOB DONE.